NAME          COPTPROB
OBJSENSE
  MIN
ROWS
 N  __OBJ___
 L  C1      
 L  C22     
 L  C23     
 L  C43     
 L  C59     
 L  C74     
 L  C77     
 L  C80     
 L  C90     
 L  C140    
 L  C159    
 L  C168    
 L  C180    
COLUMNS
    MARKER    'MARKER'                 'INTORG'
    x201      __OBJ___  161
    x201      C1        -1
    x201      C140      -1
    x245      __OBJ___  25
    x245      C43       -1
    x245      C59       -1
    x253      __OBJ___  18
    x253      C23       -1
    x253      C168      -1
    x831      __OBJ___  71
    x831      C1        -1
    x831      C77       -1
    x878      __OBJ___  41
    x878      C59       -1
    x878      C168      -1
    x949      __OBJ___  102
    x949      C159      -1
    x949      C180      -1
    x1034     __OBJ___  1
    x1034     C22       -1
    x1034     C90       -1
    x1187     __OBJ___  188
    x1187     C80       -1
    x1187     C140      -1
    x1252     __OBJ___  58
    x1252     C77       -1
    x1252     C90       -1
    x1254     __OBJ___  127
    x1254     C80       -1
    x1254     C180      -1
    x1497     __OBJ___  141
    x1497     C23       -1
    x1497     C74       -1
    x1572     __OBJ___  135
    x1572     C22       -1
    x1572     C74       -1
    x1576     __OBJ___  2
    x1576     C43       -1
    x1576     C159      -1
    MARKER    'MARKER'                 'INTEND'
RHS
    RHS       __OBJ___  -8881
    RHS       C1        -1
    RHS       C22       -1
    RHS       C23       -1
    RHS       C43       -1
    RHS       C59       -1
    RHS       C74       -1
    RHS       C77       -1
    RHS       C80       -1
    RHS       C90       -1
    RHS       C140      -1
    RHS       C159      -1
    RHS       C168      -1
    RHS       C180      -1
BOUNDS
 UP BOUND     x201      1
 UP BOUND     x245      1
 UP BOUND     x253      1
 UP BOUND     x831      1
 UP BOUND     x878      1
 UP BOUND     x949      1
 UP BOUND     x1034     1
 UP BOUND     x1187     1
 UP BOUND     x1252     1
 UP BOUND     x1254     1
 UP BOUND     x1497     1
 UP BOUND     x1572     1
 UP BOUND     x1576     1
ENDATA
